NAME          BLANK   
ROWS
 N  OBJROW
 L  R0000000
COLUMNS
    C0000000  OBJROW     -500.         R0000000  16.         
    C0000001  OBJROW     -959.         R0000000  811.        
    C0000002  OBJROW     -634.         R0000000  806.        
    C0000003  OBJROW     -872.         R0000000  341.        
    C0000004  OBJROW     -298.         R0000000  532.        
    C0000005  OBJROW     -688.         R0000000  638.        
    C0000006  OBJROW     -978.         R0000000  828.        
    C0000007  OBJROW     -576.         R0000000  783.        
    C0000008  OBJROW     -346.         R0000000  916.        
    C0000009  OBJROW     -521.         R0000000  23.         
    C0000010  OBJROW     -344.         R0000000  244.        
    C0000011  OBJROW     -659.         R0000000  871.        
    C0000012  OBJROW     -982.         R0000000  420.        
    C0000013  OBJROW     -229.         R0000000  759.        
    C0000014  OBJROW     -862.         R0000000  506.        
    C0000015  OBJROW     -843.         R0000000  384.        
    C0000016  OBJROW     -512.         R0000000  482.        
    C0000017  OBJROW     -881.         R0000000  288.        
    C0000018  OBJROW     -609.         R0000000  714.        
    C0000019  OBJROW     -802.         R0000000  297.        
RHS
    RHS       R0000000  5329.       
BOUNDS
 BV BOUND     C0000000  1.          
 BV BOUND     C0000001  1.          
 BV BOUND     C0000002  1.          
 BV BOUND     C0000003  1.          
 BV BOUND     C0000004  1.          
 BV BOUND     C0000005  1.          
 BV BOUND     C0000006  1.          
 BV BOUND     C0000007  1.          
 BV BOUND     C0000008  1.          
 BV BOUND     C0000009  1.          
 BV BOUND     C0000010  1.          
 BV BOUND     C0000011  1.          
 BV BOUND     C0000012  1.          
 BV BOUND     C0000013  1.          
 BV BOUND     C0000014  1.          
 BV BOUND     C0000015  1.          
 BV BOUND     C0000016  1.          
 BV BOUND     C0000017  1.          
 BV BOUND     C0000018  1.          
 BV BOUND     C0000019  1.          
ENDATA
